
Gurobi 12.0.2 (mac64[arm]) logging started Fri Jun 13 18:31:11 2025

Set parameter LogFile to value "/Users/yurunfeng/Documents/GitHub/LRGTS-store-location/result/gurobi/snyder/150nodes/150-0.85-3.log"
Gurobi Optimizer version 12.0.2 build v12.0.2rc0 (mac64[arm] - Darwin 24.5.0 24F74)

CPU model: Apple M4
Thread count: 10 physical cores, 10 logical processors, using up to 10 threads

Non-default parameters:
TimeLimit  1200

Optimize a model with 3510600 rows, 6795450 columns and 32209486 nonzeros
Model fingerprint: 0x96e61b69
Variable types: 3397650 continuous, 3397800 integer (3397800 binary)
Coefficient statistics:
  Matrix range     [2e-01, 1e+00]
  Objective range  [9e+01, 8e+06]
  Bounds range     [1e+00, 1e+00]
  RHS range        [1e+00, 3e+00]
Found heuristic solution: objective 6.624322e+07
Presolve removed 22800 rows and 22650 columns (presolve time = 5s)...
Presolve removed 22800 rows and 22650 columns (presolve time = 10s)...
Presolve removed 45300 rows and 22650 columns (presolve time = 15s)...
Presolve removed 45300 rows and 22650 columns (presolve time = 21s)...
Presolve removed 45300 rows and 22650 columns (presolve time = 25s)...
Presolve removed 45300 rows and 22650 columns (presolve time = 30s)...
Presolve removed 45300 rows and 22650 columns (presolve time = 40s)...
Presolve removed 45300 rows and 22650 columns (presolve time = 45s)...
Presolve removed 45300 rows and 22650 columns (presolve time = 50s)...
Presolve removed 45300 rows and 22650 columns (presolve time = 80s)...
Presolve removed 45300 rows and 22650 columns (presolve time = 80s)...
Presolve removed 45300 rows and 22650 columns (presolve time = 87s)...
Presolve removed 45300 rows and 22650 columns (presolve time = 90s)...
Presolve removed 45300 rows and 22650 columns
Presolve time: 90.53s
Presolved: 3465300 rows, 6772800 columns, 29017361 nonzeros
Variable types: 3375000 continuous, 3397800 integer (3397800 binary)
Deterministic concurrent LP optimizer: primal simplex, dual simplex, and barrier
Showing barrier log only...

Root barrier log...

Elapsed ordering time = 15s
Elapsed ordering time = 15s
Elapsed ordering time = 20s
Elapsed ordering time = 39s
Elapsed ordering time = 40s
Elapsed ordering time = 150s
Elapsed ordering time = 216s
Elapsed ordering time = 279s
Elapsed ordering time = 343s
Ordering time: 342.75s

Barrier performed 0 iterations in 446.79 seconds (282.85 work units)
Barrier solve interrupted - model solved by another algorithm

Concurrent spin time: 327.45s (can be avoided by choosing Method=3)

Solved with dual simplex

Root simplex log...

Iteration    Objective       Primal Inf.    Dual Inf.      Time
   31809    2.3976733e+06   0.000000e+00   0.000000e+00    447s

Root relaxation: objective 2.397673e+06, 31809 iterations, 353.89 seconds (58.04 work units)

    Nodes    |    Current Node    |     Objective Bounds      |     Work
 Expl Unexpl |  Obj  Depth IntInf | Incumbent    BestBd   Gap | It/Node Time

     0     0 2397673.34    0 3363 6.6243e+07 2397673.34  96.4%     -  463s
H    0     0                    4242051.3072 2397673.34  43.5%     -  529s
H    0     0                    4169217.5353 2397673.34  42.5%     -  588s
     0     0 2436363.53    0 6870 4169217.54 2436363.53  41.6%     -  898s
     0     0 2440720.75    0 6823 4169217.54 2440720.75  41.5%     -  983s
     0     0 2440807.61    0 6746 4169217.54 2440807.61  41.5%     - 1021s
     0     0 2440808.67    0 6761 4169217.54 2440808.67  41.5%     - 1049s
     0     0 2440811.42    0 6751 4169217.54 2440811.42  41.5%     - 1074s
     0     0 2440813.31    0 6751 4169217.54 2440813.31  41.5%     - 1094s
     0     0 2440815.39    0 6757 4169217.54 2440815.39  41.5%     - 1116s
     0     0 2440818.33    0 6759 4169217.54 2440818.33  41.5%     - 1145s
     0     0 2440818.69    0 6755 4169217.54 2440818.69  41.5%     - 1162s

Cutting planes:
  Cover: 10
  MIR: 122
  Flow cover: 436
  Zero half: 1
  RLT: 45

Explored 1 nodes (106374 simplex iterations) in 1201.20 seconds (1357.74 work units)
Thread count was 10 (of 10 available processors)

Solution count 3: 4.16922e+06 4.24205e+06 6.62432e+07 

Time limit reached
Best objective 4.169217535452e+06, best bound 2.440826542062e+06, gap 41.4560%
